unsat
((set-logic NIA)
(declare-fun a!4 () Int)
(declare-fun s!0 () Int)
(declare-fun r!1 () Int)
(declare-fun b!2 () Int)
(declare-fun p!5 () Int)
(declare-fun q!3 () Int)
(proof
(let ((?x265 (* b!2 r!1)))
 (let ((?x142 (* s00 a00)))
 (let ((?x2403 (+ ?x142 (* (- 1) (* r00 b00)) ?x265 (* (- 1) (* s!0 a!4)))))
 (let (($x524 (>= ?x2403 0)))
 (let (($x2404 (= ?x2403 0)))
 (let ((?x1372 (* s!0 a!4)))
 (let ((?x264 (* (- 1) ?x265)))
 (let ((?x160 (* r00 b00)))
 (let ((?x149 (* (- 1) ?x142)))
 (let ((?x2352 (+ ?x149 ?x160 ?x264 ?x1372)))
 (let ((?x1431 (* p!5 p!5 p!5 a!4 a!4 a!4 a!4 a!4 a!4 r!1 r!1 r!1 r!1)))
 (let ((?x1435 (* (- 1) ?x1431)))
 (let ((?x1280 (* b!2 p!5 p!5 p!5 a!4 a!4 a!4 a!4 a!4 r!1 r!1 r!1 r!1)))
 (let ((?x1269 (* b!2 b!2 p!5 p!5 p!5 a!4 a!4 a!4 a!4 r!1 r!1 r!1 r!1)))
 (let ((?x1268 (* b!2 b!2 b!2 p!5 p!5 p!5 a!4 a!4 a!4 r!1 r!1 r!1 r!1)))
 (let ((?x1260 (* b!2 b!2 p!5 p!5 p!5 s!0 a!4 a!4 a!4 a!4 r!1 r!1 r!1)))
 (let ((?x1259 (* p!5 p!5 p!5 s!0 a!4 a!4 a!4 a!4 a!4 a!4 r!1 r!1 r!1)))
 (let ((?x1258 (* b!2 b!2 b!2 p!5 p!5 p!5 s!0 a!4 a!4 a!4 r!1 r!1 r!1)))
 (let ((?x1257 (* b!2 p!5 p!5 p!5 s!0 a!4 a!4 a!4 a!4 a!4 r!1 r!1 r!1)))
 (let ((?x1252 (* p!5 p!5 p!5 s!0 s!0 a!4 a!4 a!4 a!4 a!4 a!4 r!1 r!1)))
 (let ((?x1244 (* b!2 b!2 p!5 p!5 p!5 s!0 s!0 a!4 a!4 a!4 a!4 r!1 r!1)))
 (let ((?x1240 (* b!2 b!2 b!2 p!5 p!5 p!5 s!0 s!0 a!4 a!4 a!4 r!1 r!1)))
 (let ((?x1180 (* (- 1) (* b!2 p!5 p!5 p!5 a!4 r!1))))
 (let ((?x1123 (* q!3 q!3 r!1 r!1)))
 (let ((?x1117 (* p!5 p!5 r!1 r!1)))
 (let ((?x1116 (* p!5 p!5 p!5 a!4 a!4 r!1)))
 (let ((?x1004 (* b!2 p!5 p!5 p!5 s!0 s!0 a!4 a!4 a!4 a!4 a!4 r!1 r!1)))
 (let ((?x871 (* q!3 q!3 s!0 s!0)))
 (let ((?x437 (* p!5 p!5 s!0 s!0)))
 (let ((?x530 (+ ?x437 (* (- 2) (* q!3 p!5 s!0 s!0)) ?x871 (* 3 ?x1004) (* (- 2) (* p!5 p!5 s!0 r!1)) ?x1116 ?x1117 ?x1123 ?x1180 (* (- 2) (* q!3 q!3 s!0 r!1)) (* 4 (* q!3 p!5 s!0 r!1)) (* (- 2) (* q!3 p!5 r!1 r!1)) ?x1240 (* (- 3) ?x1244) (* (- 1) ?x1252) (* (- 6) ?x1257) (* (- 2) ?x1258) (* 2 ?x1259) (* 6 ?x1260) ?x1268 (* (- 3) ?x1269) (* 3 ?x1280) ?x1435)))
 (let ((?x2358 (* p!5 p!5 p!5 p!5 a!4 a!4 a!4 a!4 a!4 r!1 r!1 r!1)))
 (let ((?x2359 (* (- 1) ?x2358)))
 (let ((?x1963 (* p!5 p!5 a!4 a!4 r!1 r!1 r!1)))
 (let ((?x1212 (* q!3 q!3 b!2 p!5 p!5 a!4 a!4 a!4 a!4 r!1 r!1 r!1)))
 (let ((?x1211 (* q!3 q!3 p!5 p!5 a!4 a!4 a!4 a!4 a!4 r!1 r!1 r!1)))
 (let ((?x1192 (* q!3 b!2 p!5 p!5 p!5 a!4 a!4 a!4 a!4 r!1 r!1 r!1)))
 (let ((?x1011 (* q!3 p!5 p!5 p!5 a!4 a!4 a!4 a!4 a!4 r!1 r!1 r!1)))
 (let ((?x1010 (* q!3 b!2 b!2 p!5 p!5 p!5 a!4 a!4 a!4 r!1 r!1 r!1)))
 (let ((?x1009 (* q!3 b!2 b!2 b!2 p!5 p!5 p!5 a!4 a!4 r!1 r!1 r!1)))
 (let ((?x851 (* q!3 q!3 b!2 b!2 b!2 p!5 p!5 a!4 a!4 r!1 r!1 r!1)))
 (let ((?x1908 (* (- 1) (* p!5 p!5 p!5 a!4 a!4 r!1 r!1 r!1 r!1))))
 (let ((?x609 (* b!2 b!2 p!5 p!5 p!5 s!0 s!0 s!0 r!1)))
 (let ((?x479 (* b!2 b!2 p!5 p!5 p!5 p!5 a!4 a!4 a!4 r!1 r!1 r!1)))
 (let ((?x467 (* q!3 q!3 b!2 b!2 p!5 p!5 a!4 a!4 a!4 r!1 r!1 r!1)))
 (let ((?x435 (* b!2 b!2 b!2 p!5 p!5 p!5 p!5 a!4 a!4 r!1 r!1 r!1)))
 (let ((?x430 (* b!2 p!5 p!5 p!5 p!5 a!4 a!4 a!4 a!4 r!1 r!1 r!1)))
 (let ((?x618 (* (- 1) (* b!2 b!2 p!5 p!5 s!0 s!0 s!0))))
 (let ((?x522 (+ ?x618 (* (- 6) (* b!2 p!5 p!5 p!5 s!0 a!4 r!1 r!1 r!1)) (* 3 (* p!5 p!5 p!5 s!0 a!4 a!4 r!1 r!1 r!1)) (* (- 1) (* b!2 b!2 p!5 p!5 p!5 r!1 r!1 r!1 r!1)) (* 2 (* b!2 p!5 p!5 p!5 a!4 r!1 r!1 r!1 r!1)) (* 2 (* b!2 p!5 p!5 s!0 s!0 s!0 a!4)) (* (- 1) (* p!5 p!5 s!0 s!0 s!0 a!4 a!4)) (* (- 6) (* b!2 p!5 p!5 s!0 s!0 a!4 r!1)) (* 3 (* b!2 b!2 p!5 p!5 p!5 s!0 r!1 r!1 r!1)) (* (- 3) (* p!5 p!5 p!5 s!0 s!0 a!4 a!4 r!1 r!1)) (* 6 (* b!2 p!5 p!5 p!5 s!0 s!0 a!4 r!1 r!1)) (* (- 3) (* b!2 b!2 p!5 p!5 p!5 s!0 s!0 r!1 r!1)) (* p!5 p!5 p!5 s!0 s!0 s!0 a!4 a!4 r!1) (* (- 2) (* b!2 p!5 p!5 p!5 s!0 s!0 s!0 a!4 r!1)) (* 6 (* b!2 p!5 p!5 s!0 a!4 r!1 r!1)) (* 3 (* p!5 p!5 s!0 s!0 a!4 a!4 r!1)) (* 3 ?x430) ?x435 (* (- 3) ?x467) (* 3 (* b!2 b!2 p!5 p!5 s!0 s!0 r!1)) (* (- 3) ?x479) ?x609 ?x1908 ?x851 (* (- 2) ?x1009) (* 6 ?x1010) (* 2 ?x1011) (* (- 6) ?x1192) (* (- 1) ?x1211) (* 3 ?x1212) (* (- 3) (* p!5 p!5 s!0 a!4 a!4 r!1 r!1)) ?x1963 (* (- 3) (* b!2 b!2 p!5 p!5 s!0 r!1 r!1)) ?x2359 (* b!2 b!2 p!5 p!5 r!1 r!1 r!1) (* (- 2) (* b!2 p!5 p!5 a!4 r!1 r!1 r!1)))))
 (let ((?x534 (* ?x522 ?x530 ?x2352)))
 (let (($x1001 (= ?x534 0)))
 (let ((?x518 (* (- 1) q!3)))
 (let ((?x2112 (+ ?x518 p!5)))
 (let ((?x511 (* (- 1) b!2)))
 (let ((?x1104 (+ ?x511 a!4)))
 (let ((?x2161 (* (- 1) s!0)))
 (let ((?x2467 (+ ?x2161 r!1)))
 (let ((?x2106 (* ?x2467 ?x2467 ?x1104 ?x1104 ?x1104 ?x2112 ?x2112 ?x2112 s!0 s!0 b!2 b!2 b!2)))
 (let ((?x1666 (* q!3 q!3 q!3 b!2 b!2 s!0)))
 (let ((?x1514 (* (- 1) (* q!3 q!3 q!3 b!2 b!2 r!1))))
 (let ((?x492 (+ ?x1514 (* 3 (* q!3 b!2 p!5 p!5 a!4 r!1)) (* (- 3) (* q!3 q!3 b!2 p!5 a!4 r!1)) (* (- 3) (* q!3 b!2 b!2 p!5 p!5 r!1)) (* b!2 b!2 p!5 p!5 p!5 r!1) (* 3 (* q!3 q!3 b!2 b!2 p!5 r!1)) ?x871 ?x1180 (* q!3 q!3 q!3 b!2 a!4 r!1) (* b!2 p!5 p!5 p!5 s!0 a!4) (* (- 3) (* q!3 b!2 p!5 p!5 s!0 a!4)) (* 3 (* q!3 b!2 b!2 p!5 p!5 s!0)) (* 3 (* q!3 q!3 b!2 p!5 s!0 a!4)) (* (- 1) (* q!3 q!3 q!3 b!2 s!0 a!4)) ?x1666 (* (- 3) (* q!3 q!3 b!2 b!2 p!5 s!0)) (* (- 1) (* b!2 b!2 p!5 p!5 p!5 s!0)) ?x2106)))
 (let ((?x2329 (* q!3 q!3 q!3 b!2 b!2 s!0 s!0 s!0 s!0)))
 (let ((?x2085 (* ?x2467 ?x2467 ?x2467 ?x1104 ?x1104 ?x2112 ?x2112 b!2 b!2 b!2 q!3 q!3)))
 (let ((?x1081 (* (- 1) (* q!3 q!3 b!2 b!2 s!0 s!0 s!0))))
 (let ((?x425 (+ ?x618 ?x609 (* (- 3) (* q!3 b!2 b!2 p!5 p!5 s!0 s!0 s!0 r!1)) ?x1081 (* 3 (* q!3 q!3 b!2 b!2 p!5 s!0 s!0 s!0 r!1)) (* 2 (* q!3 b!2 b!2 p!5 s!0 s!0 s!0)) (* (- 1) (* b!2 b!2 p!5 p!5 p!5 s!0 s!0 s!0 s!0)) (* (- 3) (* q!3 q!3 b!2 b!2 p!5 s!0 s!0 s!0 s!0)) (* (- 1) (* q!3 q!3 q!3 b!2 b!2 s!0 s!0 s!0 r!1)) (* 3 (* q!3 b!2 b!2 p!5 p!5 s!0 s!0 s!0 s!0)) ?x2085 ?x2329)))
 (let ((?x355 (* ?x425 ?x492 ?x2352)))
 (let (($x427 (= ?x355 0)))
 (let (($x469 (not $x427)))
 (let (($x1266 (or $x469 (not $x1001))))
 (let ((?x1121 (+ (* s00 a00 q!3) (* (- 1) (* r00 b00 q!3)) (* q00 r00 b!2) (* (- 1) (* p00 s00 b!2)) (* (- 1) (* q00 a00 s!0)) (* p00 b00 s!0))))
 (let ((?x1042 (+ (* q00 a00 r!1) (* (- 1) (* s00 a00 p!5)) (* p00 s00 a!4) (* (- 1) (* p00 b00 r!1)) (* (- 1) (* q00 r00 a!4)) (* r00 b00 p!5))))
 (let ((?x148 (* q00 a00)))
 (let ((?x1231 (+ ?x148 (* (- 1) (* p00 b00)) (* (- 1) (* q!3 a!4)) (* b!2 p!5))))
 (let ((?x2317 (* q!3 r!1)))
 (let ((?x41 (* q00 r00)))
 (let ((?x910 (* (- 1) ?x41)))
 (let ((?x37 (* p00 s00)))
 (let (($x1253 (and (= (+ ?x37 ?x910 (* (- 1) (* p!5 s!0)) ?x2317) 0) $x2404 (= ?x1231 0) (= ?x1042 0) (= ?x1121 0) $x1266)))
 (let ((?x1881 (+ (* a!4 s!0) ?x264 ?x149 ?x160)))
 (let ((?x1968 (* p!5 p!5 p!5 a!4 a!4 a!4 b!2 b!2 b!2 r!1 r!1 s!0 s!0)))
 (let ((?x1811 (* p!5 p!5 p!5 a!4 a!4 a!4 a!4 b!2 b!2 r!1 r!1 s!0 s!0)))
 (let ((?x855 (* p!5 p!5 p!5 a!4 a!4 a!4 a!4 a!4 b!2 r!1 r!1 s!0 s!0)))
 (let ((?x145 (* p!5 p!5 p!5 a!4 a!4 a!4 a!4 a!4 a!4 r!1 r!1 s!0 s!0)))
 (let ((?x1400 (* p!5 p!5 p!5 a!4 a!4 a!4 b!2 b!2 b!2 r!1 r!1 r!1 s!0)))
 (let ((?x1396 (* p!5 p!5 p!5 a!4 a!4 a!4 a!4 b!2 b!2 r!1 r!1 r!1 s!0)))
 (let ((?x1388 (* p!5 p!5 p!5 a!4 a!4 a!4 a!4 a!4 b!2 r!1 r!1 r!1 s!0)))
 (let ((?x1294 (* p!5 p!5 p!5 a!4 a!4 a!4 a!4 a!4 a!4 r!1 r!1 r!1 s!0)))
 (let ((?x2128 (* p!5 p!5 p!5 a!4 a!4 a!4 b!2 b!2 b!2 r!1 r!1 r!1 r!1)))
 (let ((?x1286 (* p!5 p!5 p!5 a!4 a!4 a!4 a!4 b!2 b!2 r!1 r!1 r!1 r!1)))
 (let ((?x1834 (* p!5 p!5 p!5 a!4 a!4 a!4 a!4 a!4 b!2 r!1 r!1 r!1 r!1)))
 (let ((?x234 (* (- 1) (* p!5 p!5 p!5 a!4 b!2 r!1))))
 (let ((?x1455 (+ ?x871 ?x234 ?x1435 (* 3 ?x1834) (* (- 3) ?x1286) ?x2128 (* 2 ?x1294) (* (- 6) ?x1388) (* 6 ?x1396) (* (- 2) ?x1400) (* (- 1) ?x145) (* 3 ?x855) (* (- 3) ?x1811) ?x1968 ?x1116 ?x1117 (* (- 2) (* p!5 q!3 r!1 r!1)) ?x1123 (* (- 2) (* p!5 p!5 r!1 s!0)) (* 4 (* p!5 q!3 r!1 s!0)) (* (- 2) (* q!3 q!3 r!1 s!0)) ?x437 (* (- 2) (* p!5 q!3 s!0 s!0)))))
 (let ((?x1955 (* p!5 p!5 a!4 a!4 q!3 q!3 b!2 b!2 b!2 r!1 r!1 r!1)))
 (let ((?x806 (* p!5 p!5 a!4 a!4 a!4 q!3 q!3 b!2 b!2 r!1 r!1 r!1)))
 (let ((?x2330 (* p!5 p!5 a!4 a!4 a!4 a!4 q!3 q!3 b!2 r!1 r!1 r!1)))
 (let ((?x2324 (* p!5 p!5 a!4 a!4 a!4 a!4 a!4 q!3 q!3 r!1 r!1 r!1)))
 (let ((?x2316 (* p!5 p!5 p!5 a!4 a!4 q!3 b!2 b!2 b!2 r!1 r!1 r!1)))
 (let ((?x1624 (* p!5 p!5 p!5 a!4 a!4 a!4 q!3 b!2 b!2 r!1 r!1 r!1)))
 (let ((?x1619 (* p!5 p!5 p!5 a!4 a!4 a!4 a!4 q!3 b!2 r!1 r!1 r!1)))
 (let ((?x338 (* p!5 p!5 p!5 a!4 a!4 a!4 a!4 a!4 q!3 r!1 r!1 r!1)))
 (let ((?x1066 (* p!5 p!5 p!5 p!5 a!4 a!4 b!2 b!2 b!2 r!1 r!1 r!1)))
 (let ((?x1739 (* p!5 p!5 p!5 p!5 a!4 a!4 a!4 b!2 b!2 r!1 r!1 r!1)))
 (let ((?x1735 (* p!5 p!5 p!5 p!5 a!4 a!4 a!4 a!4 b!2 r!1 r!1 r!1)))
 (let ((?x551 (* p!5 p!5 p!5 b!2 b!2 r!1 s!0 s!0 s!0)))
 (let ((?x1069 (* (- 1) (* p!5 p!5 b!2 b!2 s!0 s!0 s!0))))
 (let ((?x2136 (+ ?x1069 ?x551 ?x2359 (* 3 ?x1735) (* (- 3) ?x1739) ?x1066 (* 2 ?x338) (* (- 6) ?x1619) (* 6 ?x1624) (* (- 2) ?x2316) (* (- 1) ?x2324) (* 3 ?x2330) (* (- 3) ?x806) ?x1955 ?x1963 (* (- 2) (* p!5 p!5 a!4 b!2 r!1 r!1 r!1)) (* p!5 p!5 b!2 b!2 r!1 r!1 r!1) (* (- 3) (* p!5 p!5 a!4 a!4 r!1 r!1 s!0)) (* 6 (* p!5 p!5 a!4 b!2 r!1 r!1 s!0)) (* (- 3) (* p!5 p!5 b!2 b!2 r!1 r!1 s!0)) (* 3 (* p!5 p!5 a!4 a!4 r!1 s!0 s!0)) (* (- 6) (* p!5 p!5 a!4 b!2 r!1 s!0 s!0)) (* 3 (* p!5 p!5 b!2 b!2 r!1 s!0 s!0)) (* (- 1) (* p!5 p!5 a!4 a!4 s!0 s!0 s!0)) (* 2 (* p!5 p!5 a!4 b!2 s!0 s!0 s!0)) ?x1908 (* 2 (* p!5 p!5 p!5 a!4 b!2 r!1 r!1 r!1 r!1)) (* (- 1) (* p!5 p!5 p!5 b!2 b!2 r!1 r!1 r!1 r!1)) (* 3 (* p!5 p!5 p!5 a!4 a!4 r!1 r!1 r!1 s!0)) (* (- 6) (* p!5 p!5 p!5 a!4 b!2 r!1 r!1 r!1 s!0)) (* 3 (* p!5 p!5 p!5 b!2 b!2 r!1 r!1 r!1 s!0)) (* (- 3) (* p!5 p!5 p!5 a!4 a!4 r!1 r!1 s!0 s!0)) (* 6 (* p!5 p!5 p!5 a!4 b!2 r!1 r!1 s!0 s!0)) (* (- 3) (* p!5 p!5 p!5 b!2 b!2 r!1 r!1 s!0 s!0)) (* p!5 p!5 p!5 a!4 a!4 r!1 s!0 s!0 s!0) (* (- 2) (* p!5 p!5 p!5 a!4 b!2 r!1 s!0 s!0 s!0)))))
 (let ((?x520 (+ p!5 ?x518)))
 (let ((?x512 (+ a!4 ?x511)))
 (let ((?x2336 (+ r!1 ?x2161)))
 (let ((?x1668 (* ?x2336 ?x2336 ?x512 ?x512 ?x512 ?x520 ?x520 ?x520 s!0 s!0 b!2 b!2 b!2)))
 (let ((?x2184 (+ ?x871 (* 3 (* p!5 q!3 q!3 b!2 b!2 r!1)) (* (- 3) (* p!5 a!4 q!3 q!3 b!2 r!1)) (* (- 3) (* p!5 p!5 q!3 b!2 b!2 r!1)) (* 3 (* p!5 p!5 a!4 q!3 b!2 r!1)) (* p!5 p!5 p!5 b!2 b!2 r!1) ?x234 (* a!4 q!3 q!3 q!3 b!2 r!1) ?x1514 (* p!5 p!5 p!5 a!4 b!2 s!0) (* (- 1) (* p!5 p!5 p!5 b!2 b!2 s!0)) (* (- 3) (* p!5 p!5 a!4 q!3 b!2 s!0)) (* 3 (* p!5 p!5 q!3 b!2 b!2 s!0)) (* 3 (* p!5 a!4 q!3 q!3 b!2 s!0)) (* (- 3) (* p!5 q!3 q!3 b!2 b!2 s!0)) (* (- 1) (* a!4 q!3 q!3 q!3 b!2 s!0)) ?x1666 ?x1668)))
 (let ((?x464 (* ?x2336 ?x2336 ?x2336 ?x512 ?x512 ?x520 ?x520 b!2 b!2 b!2 q!3 q!3)))
 (let ((?x944 (+ (* (- 1) (* p!5 p!5 p!5 b!2 b!2 s!0 s!0 s!0 s!0)) (* (- 1) (* q!3 q!3 q!3 b!2 b!2 r!1 s!0 s!0 s!0)) (* 3 (* p!5 q!3 q!3 b!2 b!2 r!1 s!0 s!0 s!0)) ?x1081 (* 2 (* p!5 q!3 b!2 b!2 s!0 s!0 s!0)) ?x1069 (* (- 3) (* p!5 p!5 q!3 b!2 b!2 r!1 s!0 s!0 s!0)) ?x551 (* 3 (* p!5 p!5 q!3 b!2 b!2 s!0 s!0 s!0 s!0)) (* (- 3) (* p!5 q!3 q!3 b!2 b!2 s!0 s!0 s!0 s!0)) ?x2329 ?x464)))
 (let (($x733 (or (not (= (* ?x944 ?x2184 ?x1881) 0)) (not (= (* ?x2136 ?x1455 ?x1881) 0)))))
 (let ((?x2072 (+ (* b!2 q00 r00) (* (- 1) (* b!2 p00 s00)) (* s!0 p00 b00) (* (- 1) (* q!3 r00 b00)) (* q!3 s00 a00) (* (- 1) (* s!0 q00 a00)))))
 (let ((?x705 (+ (* a!4 p00 s00) (* (- 1) (* a!4 q00 r00)) (* p!5 r00 b00) (* (- 1) (* r!1 p00 b00)) (* (- 1) (* p!5 s00 a00)) (* r!1 q00 a00))))
 (let ((?x153 (* p00 b00)))
 (let ((?x194 (* (- 1) ?x148)))
 (let (($x312 (and (= (+ (* p!5 s!0) (* (- 1) ?x37) ?x41 (* (- 1) ?x2317)) 0) (= ?x1881 0) (= (+ (* a!4 q!3) ?x194 ?x153 (* (- 1) (* p!5 b!2))) 0) (= ?x705 0) (= ?x2072 0) $x733)))
 (let (($x1728 (exists ((p Int) (a Int) (q Int) (b Int) (r Int) (s Int) )(! (let ((?x160 (* r00 b00)))
 (let ((?x142 (* s00 a00)))
 (let ((?x149 (* (- 1) ?x142)))
 (let ((?x137 (* (- 1) (* b r))))
 (let ((?x49 (* a s)))
 (let ((?x167 (+ ?x49 ?x137 ?x149 ?x160)))
 (let ((?x1263 (* p p p a a a b b b r r s s)))
 (let ((?x1235 (* p p p a a a a b b r r s s)))
 (let ((?x1219 (* p p p a a a a a b r r s s)))
 (let ((?x1210 (* p p p a a a a a a r r s s)))
 (let ((?x1140 (* p p p a a a b b b r r r s)))
 (let ((?x1109 (* p p p a a a a b b r r r s)))
 (let ((?x1092 (* p p p a a a a a b r r r s)))
 (let ((?x1083 (* p p p a a a a a a r r r s)))
 (let ((?x1075 (* p p p a a a b b b r r r r)))
 (let ((?x1043 (* p p p a a a a b b r r r r)))
 (let ((?x1027 (* p p p a a a a a b r r r r)))
 (let ((?x992 (* p p p a a a a a a r r r r)))
 (let ((?x801 (* (- 1) (* p p p a b r))))
 (let ((?x94 (* q q s s)))
 (let ((?x1476 (+ ?x94 ?x801 (* (- 1) ?x992) (* 3 ?x1027) (* (- 3) ?x1043) ?x1075 (* 2 ?x1083) (* (- 6) ?x1092) (* 6 ?x1109) (* (- 2) ?x1140) (* (- 1) ?x1210) (* 3 ?x1219) (* (- 3) ?x1235) ?x1263 (* p p p a a r) (* p p r r) (* (- 2) (* p q r r)) (* q q r r) (* (- 2) (* p p r s)) (* 4 (* p q r s)) (* (- 2) (* q q r s)) (* p p s s) (* (- 2) (* p q s s)))))
 (let ((?x1784 (* (- 3) (* p p a a a q q b b r r r))))
 (let ((?x1783 (* 3 (* p p a a a a q q b r r r))))
 (let ((?x1720 (* (- 1) (* p p a a a a a q q r r r))))
 (let ((?x1782 (* (- 2) (* p p p a a q b b b r r r))))
 (let ((?x1781 (* 6 (* p p p a a a q b b r r r))))
 (let ((?x1780 (* (- 6) (* p p p a a a a q b r r r))))
 (let ((?x1779 (* 2 (* p p p a a a a a q r r r))))
 (let ((?x1778 (* (- 3) (* p p p p a a a b b r r r))))
 (let ((?x1777 (* 3 (* p p p p a a a a b r r r))))
 (let ((?x1528 (* (- 1) (* p p p p a a a a a r r r))))
 (let ((?x864 (* p p p b b r s s s)))
 (let ((?x909 (* (- 1) (* p p b b s s s))))
 (let ((?x2443 (+ ?x909 ?x864 ?x1528 ?x1777 ?x1778 (* p p p p a a b b b r r r) ?x1779 ?x1780 ?x1781 ?x1782 ?x1720 ?x1783 ?x1784 (* p p a a q q b b b r r r) (* p p a a r r r) (* (- 2) (* p p a b r r r)) (* p p b b r r r) (* (- 3) (* p p a a r r s)) (* 6 (* p p a b r r s)) (* (- 3) (* p p b b r r s)) (* 3 (* p p a a r s s)) (* (- 6) (* p p a b r s s)) (* 3 (* p p b b r s s)) (* (- 1) (* p p a a s s s)) (* 2 (* p p a b s s s)) (* (- 1) (* p p p a a r r r r)) (* 2 (* p p p a b r r r r)) (* (- 1) (* p p p b b r r r r)) (* 3 (* p p p a a r r r s)) (* (- 6) (* p p p a b r r r s)) (* 3 (* p p p b b r r r s)) (* (- 3) (* p p p a a r r s s)) (* 6 (* p p p a b r r s s)) (* (- 3) (* p p p b b r r s s)) (* p p p a a r s s s) (* (- 2) (* p p p a b r s s s)))))
 (let ((?x348 (+ p (* (- 1) q))))
 (let ((?x311 (+ a (* (- 1) b))))
 (let ((?x272 (* (- 1) s)))
 (let ((?x274 (+ r ?x272)))
 (let ((?x908 (* ?x274 ?x274 ?x311 ?x311 ?x311 ?x348 ?x348 ?x348 s s b b b)))
 (let ((?x641 (* q q q b b s)))
 (let ((?x792 (* (- 1) (* a q q q b s))))
 (let ((?x760 (* (- 3) (* p q q b b s))))
 (let ((?x763 (* 3 (* p a q q b s))))
 (let ((?x766 (* 3 (* p p q b b s))))
 (let ((?x769 (* (- 3) (* p p a q b s))))
 (let ((?x797 (* (- 1) (* p p p b b s))))
 (let ((?x519 (* p p p a b s)))
 (let ((?x799 (* (- 1) (* q q q b b r))))
 (let ((?x501 (* a q q q b r)))
 (let ((?x441 (* p p p b b r)))
 (let ((?x778 (* 3 (* p p a q b r))))
 (let ((?x781 (* (- 3) (* p p q b b r))))
 (let ((?x784 (* (- 3) (* p a q q b r))))
 (let ((?x787 (* 3 (* p q q b b r))))
 (let ((?x601 (+ ?x94 ?x787 ?x784 ?x781 ?x778 ?x441 ?x801 ?x501 ?x799 ?x519 ?x797 ?x769 ?x766 ?x763 ?x760 ?x792 ?x641 ?x908)))
 (let ((?x1144 (* ?x274 ?x274 ?x274 ?x311 ?x311 ?x348 ?x348 b b b q q)))
 (let ((?x960 (* q q q b b s s s s)))
 (let ((?x971 (* (- 3) (* p q q b b s s s s))))
 (let ((?x970 (* 3 (* p p q b b s s s s))))
 (let ((?x968 (* (- 3) (* p p q b b r s s s))))
 (let ((?x904 (* 2 (* p q b b s s s))))
 (let ((?x911 (* (- 1) (* q q b b s s s))))
 (let ((?x969 (* 3 (* p q q b b r s s s))))
 (let ((?x710 (* (- 1) (* q q q b b r s s s))))
 (let ((?x700 (* (- 1) (* p p p b b s s s s))))
 (let ((?x450 (* (+ ?x700 ?x710 ?x969 ?x911 ?x904 ?x909 ?x968 ?x864 ?x970 ?x971 ?x960 ?x1144) ?x601 ?x167)))
 (let ((?x72 (* b q00 r00)))
 (let ((?x326 (+ ?x72 (* (- 1) (* b p00 s00)) (* s p00 b00) (* (- 1) (* q r00 b00)) (* q s00 a00) (* (- 1) (* s q00 a00)))))
 (let (($x331 (= ?x326 0)))
 (let ((?x63 (* a p00 s00)))
 (let ((?x262 (+ ?x63 (* (- 1) (* a q00 r00)) (* p r00 b00) (* (- 1) (* r p00 b00)) (* (- 1) (* p s00 a00)) (* r q00 a00))))
 (let (($x263 (= ?x262 0)))
 (let ((?x153 (* p00 b00)))
 (let ((?x148 (* q00 a00)))
 (let ((?x194 (* (- 1) ?x148)))
 (let (($x197 (= (+ (* a q) ?x194 ?x153 (* (- 1) (* p b))) 0)))
 (let (($x175 (= ?x167 0)))
 (let ((?x41 (* q00 r00)))
 (let ((?x37 (* p00 s00)))
 (let ((?x151 (* (- 1) ?x37)))
 (let ((?x33 (* p s)))
 (let (($x170 (= (+ ?x33 ?x151 ?x41 (* (- 1) (* q r))) 0)))
 (and $x170 $x175 $x197 $x263 $x331 (or (not (= ?x450 0)) (not (= (* ?x2443 ?x1476 ?x167) 0)))))))))))))))))))))))))))))))))))))))))))))))))))))))))))))))))))))))))))))))))))))) :qid k!39))
 ))
 (let (($x1727 (exists ((p Int) (a Int) (q Int) (b Int) (r Int) (s Int) )(! (let ((?x51 (* b00 r00)))
 (let ((?x47 (* a00 s00)))
 (let ((?x1195 (* (- 1) ?x47)))
 (let ((?x1745 (+ (* (- 1) (* (+ b (* (- 1) a)) r)) ?x1195 (* (+ s (* (- 1) r)) a) ?x51)))
 (let ((?x838 (+ q (* (- 1) p))))
 (let ((?x363 (+ s (* (- 1) r))))
 (let ((?x849 (* (- 1) a)))
 (let ((?x841 (+ b ?x849)))
 (let ((?x2228 (* ?x363 ?x363 ?x841 ?x841 ?x841 r r a a a p p p)))
 (let ((?x1617 (+ ?x2228 (* (- 1) (* ?x841 r a p p p)) (* ?x363 ?x363 ?x838 ?x838))))
 (let ((?x1603 (+ (* ?x841 ?x841 ?x841 ?x838 ?x838 r r r a a p p) (* (- 1) (* ?x363 ?x363 ?x363 ?x841 ?x841 p p)) (* ?x363 ?x363 ?x363 ?x841 ?x841 r p p p))))
 (let ((?x1143 (+ (* (- 1) (* (+ r (* (- 1) s)) b)) ?x1195 (* (+ a (* (- 1) b)) s) ?x51)))
 (let ((?x348 (+ p (* (- 1) q))))
 (let ((?x311 (+ a (* (- 1) b))))
 (let ((?x272 (* (- 1) s)))
 (let ((?x274 (+ r ?x272)))
 (let ((?x908 (* ?x274 ?x274 ?x311 ?x311 ?x311 ?x348 ?x348 ?x348 s s b b b)))
 (let ((?x2335 (+ ?x908 (* (- 1) (* ?x274 ?x311 ?x348 ?x348 ?x348 b)) (* s s q q))))
 (let ((?x1144 (* ?x274 ?x274 ?x274 ?x311 ?x311 ?x348 ?x348 b b b q q)))
 (let ((?x374 (+ ?x1144 (* (- 1) (* ?x348 ?x348 s s s b b)) (* ?x274 ?x348 ?x348 ?x348 s s s b b))))
 (let (($x991 (or (not (= (* ?x374 ?x2335 ?x1143) 0)) (not (= (* ?x1603 ?x1617 ?x1745) 0)))))
 (let ((?x73 (* b00 p00 s)))
 (let ((?x906 (+ (* q00 r00 b) ?x73 (* (- 1) (* b00 r00 q)) (* (- 1) (* p00 s00 b)) (* a00 s00 q) (* (- 1) (* a00 q00 s)))))
 (let (($x902 (= ?x906 0)))
 (let ((?x69 (* a00 q00 r)))
 (let ((?x2044 (* p00 s00 a)))
 (let ((?x495 (* b00 r00 p)))
 (let ((?x1199 (+ ?x495 ?x2044 (* (- 1) (* b00 p00 r)) (* (- 1) (* q00 r00 a)) (* (- 1) (* a00 s00 p)) ?x69)))
 (let ((?x57 (* b00 p00)))
 (let ((?x2003 (* q a)))
 (let (($x2001 (= (+ ?x2003 (* (- 1) (* a00 q00)) ?x57 (* (- 1) (* b p))) 0)))
 (let (($x1194 (= (+ (* r b) ?x47 (* (- 1) (* s a)) (* (- 1) ?x51)) 0)))
 (let ((?x41 (* q00 r00)))
 (let ((?x910 (* (- 1) ?x41)))
 (let ((?x37 (* p00 s00)))
 (let ((?x1996 (* r q)))
 (and (= (+ ?x1996 (* (- 1) (* s p)) ?x37 ?x910) 0) $x1194 $x2001 (= ?x1199 0) $x902 $x991))))))))))))))))))))))))))))))))))))) :qid k!39))
 ))
 (let ((?x1408 (lambda ((p Int) (a Int) (q Int) (b Int) (r Int) (s Int) )(let ((?x160 (* r00 b00)))
 (let ((?x142 (* s00 a00)))
 (let ((?x149 (* (- 1) ?x142)))
 (let ((?x137 (* (- 1) (* b r))))
 (let ((?x49 (* a s)))
 (let ((?x167 (+ ?x49 ?x137 ?x149 ?x160)))
 (let ((?x1263 (* p p p a a a b b b r r s s)))
 (let ((?x1235 (* p p p a a a a b b r r s s)))
 (let ((?x1219 (* p p p a a a a a b r r s s)))
 (let ((?x1210 (* p p p a a a a a a r r s s)))
 (let ((?x1140 (* p p p a a a b b b r r r s)))
 (let ((?x1109 (* p p p a a a a b b r r r s)))
 (let ((?x1092 (* p p p a a a a a b r r r s)))
 (let ((?x1083 (* p p p a a a a a a r r r s)))
 (let ((?x1075 (* p p p a a a b b b r r r r)))
 (let ((?x1043 (* p p p a a a a b b r r r r)))
 (let ((?x1027 (* p p p a a a a a b r r r r)))
 (let ((?x992 (* p p p a a a a a a r r r r)))
 (let ((?x801 (* (- 1) (* p p p a b r))))
 (let ((?x94 (* q q s s)))
 (let ((?x1476 (+ ?x94 ?x801 (* (- 1) ?x992) (* 3 ?x1027) (* (- 3) ?x1043) ?x1075 (* 2 ?x1083) (* (- 6) ?x1092) (* 6 ?x1109) (* (- 2) ?x1140) (* (- 1) ?x1210) (* 3 ?x1219) (* (- 3) ?x1235) ?x1263 (* p p p a a r) (* p p r r) (* (- 2) (* p q r r)) (* q q r r) (* (- 2) (* p p r s)) (* 4 (* p q r s)) (* (- 2) (* q q r s)) (* p p s s) (* (- 2) (* p q s s)))))
 (let ((?x1784 (* (- 3) (* p p a a a q q b b r r r))))
 (let ((?x1783 (* 3 (* p p a a a a q q b r r r))))
 (let ((?x1720 (* (- 1) (* p p a a a a a q q r r r))))
 (let ((?x1782 (* (- 2) (* p p p a a q b b b r r r))))
 (let ((?x1781 (* 6 (* p p p a a a q b b r r r))))
 (let ((?x1780 (* (- 6) (* p p p a a a a q b r r r))))
 (let ((?x1779 (* 2 (* p p p a a a a a q r r r))))
 (let ((?x1778 (* (- 3) (* p p p p a a a b b r r r))))
 (let ((?x1777 (* 3 (* p p p p a a a a b r r r))))
 (let ((?x1528 (* (- 1) (* p p p p a a a a a r r r))))
 (let ((?x864 (* p p p b b r s s s)))
 (let ((?x909 (* (- 1) (* p p b b s s s))))
 (let ((?x2443 (+ ?x909 ?x864 ?x1528 ?x1777 ?x1778 (* p p p p a a b b b r r r) ?x1779 ?x1780 ?x1781 ?x1782 ?x1720 ?x1783 ?x1784 (* p p a a q q b b b r r r) (* p p a a r r r) (* (- 2) (* p p a b r r r)) (* p p b b r r r) (* (- 3) (* p p a a r r s)) (* 6 (* p p a b r r s)) (* (- 3) (* p p b b r r s)) (* 3 (* p p a a r s s)) (* (- 6) (* p p a b r s s)) (* 3 (* p p b b r s s)) (* (- 1) (* p p a a s s s)) (* 2 (* p p a b s s s)) (* (- 1) (* p p p a a r r r r)) (* 2 (* p p p a b r r r r)) (* (- 1) (* p p p b b r r r r)) (* 3 (* p p p a a r r r s)) (* (- 6) (* p p p a b r r r s)) (* 3 (* p p p b b r r r s)) (* (- 3) (* p p p a a r r s s)) (* 6 (* p p p a b r r s s)) (* (- 3) (* p p p b b r r s s)) (* p p p a a r s s s) (* (- 2) (* p p p a b r s s s)))))
 (let ((?x348 (+ p (* (- 1) q))))
 (let ((?x311 (+ a (* (- 1) b))))
 (let ((?x272 (* (- 1) s)))
 (let ((?x274 (+ r ?x272)))
 (let ((?x908 (* ?x274 ?x274 ?x311 ?x311 ?x311 ?x348 ?x348 ?x348 s s b b b)))
 (let ((?x641 (* q q q b b s)))
 (let ((?x792 (* (- 1) (* a q q q b s))))
 (let ((?x760 (* (- 3) (* p q q b b s))))
 (let ((?x763 (* 3 (* p a q q b s))))
 (let ((?x766 (* 3 (* p p q b b s))))
 (let ((?x769 (* (- 3) (* p p a q b s))))
 (let ((?x797 (* (- 1) (* p p p b b s))))
 (let ((?x519 (* p p p a b s)))
 (let ((?x799 (* (- 1) (* q q q b b r))))
 (let ((?x501 (* a q q q b r)))
 (let ((?x441 (* p p p b b r)))
 (let ((?x778 (* 3 (* p p a q b r))))
 (let ((?x781 (* (- 3) (* p p q b b r))))
 (let ((?x784 (* (- 3) (* p a q q b r))))
 (let ((?x787 (* 3 (* p q q b b r))))
 (let ((?x601 (+ ?x94 ?x787 ?x784 ?x781 ?x778 ?x441 ?x801 ?x501 ?x799 ?x519 ?x797 ?x769 ?x766 ?x763 ?x760 ?x792 ?x641 ?x908)))
 (let ((?x1144 (* ?x274 ?x274 ?x274 ?x311 ?x311 ?x348 ?x348 b b b q q)))
 (let ((?x960 (* q q q b b s s s s)))
 (let ((?x971 (* (- 3) (* p q q b b s s s s))))
 (let ((?x970 (* 3 (* p p q b b s s s s))))
 (let ((?x968 (* (- 3) (* p p q b b r s s s))))
 (let ((?x904 (* 2 (* p q b b s s s))))
 (let ((?x911 (* (- 1) (* q q b b s s s))))
 (let ((?x969 (* 3 (* p q q b b r s s s))))
 (let ((?x710 (* (- 1) (* q q q b b r s s s))))
 (let ((?x700 (* (- 1) (* p p p b b s s s s))))
 (let ((?x450 (* (+ ?x700 ?x710 ?x969 ?x911 ?x904 ?x909 ?x968 ?x864 ?x970 ?x971 ?x960 ?x1144) ?x601 ?x167)))
 (let ((?x72 (* b q00 r00)))
 (let ((?x326 (+ ?x72 (* (- 1) (* b p00 s00)) (* s p00 b00) (* (- 1) (* q r00 b00)) (* q s00 a00) (* (- 1) (* s q00 a00)))))
 (let (($x331 (= ?x326 0)))
 (let ((?x63 (* a p00 s00)))
 (let ((?x262 (+ ?x63 (* (- 1) (* a q00 r00)) (* p r00 b00) (* (- 1) (* r p00 b00)) (* (- 1) (* p s00 a00)) (* r q00 a00))))
 (let (($x263 (= ?x262 0)))
 (let ((?x153 (* p00 b00)))
 (let ((?x148 (* q00 a00)))
 (let ((?x194 (* (- 1) ?x148)))
 (let (($x197 (= (+ (* a q) ?x194 ?x153 (* (- 1) (* p b))) 0)))
 (let (($x175 (= ?x167 0)))
 (let ((?x41 (* q00 r00)))
 (let ((?x37 (* p00 s00)))
 (let ((?x151 (* (- 1) ?x37)))
 (let ((?x33 (* p s)))
 (let (($x170 (= (+ ?x33 ?x151 ?x41 (* (- 1) (* q r))) 0)))
 (let (($x296 (and $x170 $x175 $x197 $x263 $x331 (or (not (= ?x450 0)) (not (= (* ?x2443 ?x1476 ?x167) 0))))))
 (let ((?x51 (* b00 r00)))
 (let ((?x47 (* a00 s00)))
 (let ((?x1195 (* (- 1) ?x47)))
 (let ((?x1745 (+ (* (- 1) (* (+ b (* (- 1) a)) r)) ?x1195 (* (+ s (* (- 1) r)) a) ?x51)))
 (let ((?x838 (+ q (* (- 1) p))))
 (let ((?x363 (+ s (* (- 1) r))))
 (let ((?x849 (* (- 1) a)))
 (let ((?x841 (+ b ?x849)))
 (let ((?x2228 (* ?x363 ?x363 ?x841 ?x841 ?x841 r r a a a p p p)))
 (let ((?x1617 (+ ?x2228 (* (- 1) (* ?x841 r a p p p)) (* ?x363 ?x363 ?x838 ?x838))))
 (let ((?x1603 (+ (* ?x841 ?x841 ?x841 ?x838 ?x838 r r r a a p p) (* (- 1) (* ?x363 ?x363 ?x363 ?x841 ?x841 p p)) (* ?x363 ?x363 ?x363 ?x841 ?x841 r p p p))))
 (let ((?x2335 (+ ?x908 (* (- 1) (* ?x274 ?x311 ?x348 ?x348 ?x348 b)) (* s s q q))))
 (let ((?x374 (+ ?x1144 (* (- 1) (* ?x348 ?x348 s s s b b)) (* ?x274 ?x348 ?x348 ?x348 s s s b b))))
 (let (($x786 (= (* ?x374 ?x2335 (+ (* (- 1) (* ?x274 b)) ?x1195 (* ?x311 s) ?x51)) 0)))
 (let (($x991 (or (not $x786) (not (= (* ?x1603 ?x1617 ?x1745) 0)))))
 (let ((?x73 (* b00 p00 s)))
 (let ((?x906 (+ (* q00 r00 b) ?x73 (* (- 1) (* b00 r00 q)) (* (- 1) (* p00 s00 b)) (* a00 s00 q) (* (- 1) (* a00 q00 s)))))
 (let (($x902 (= ?x906 0)))
 (let ((?x69 (* a00 q00 r)))
 (let ((?x2044 (* p00 s00 a)))
 (let ((?x495 (* b00 r00 p)))
 (let ((?x1199 (+ ?x495 ?x2044 (* (- 1) (* b00 p00 r)) (* (- 1) (* q00 r00 a)) (* (- 1) (* a00 s00 p)) ?x69)))
 (let ((?x57 (* b00 p00)))
 (let ((?x2003 (* q a)))
 (let (($x2001 (= (+ ?x2003 (* (- 1) (* a00 q00)) ?x57 (* (- 1) (* b p))) 0)))
 (let (($x1194 (= (+ (* r b) ?x47 (* (- 1) (* s a)) (* (- 1) ?x51)) 0)))
 (let (($x1076 (= (+ (* r q) (* (- 1) (* s p)) ?x37 (* (- 1) ?x41)) 0)))
 (let (($x490 (and $x1076 $x1194 $x2001 (= ?x1199 0) $x902 $x991)))
 (rewrite (= $x490 $x296))))))))))))))))))))))))))))))))))))))))))))))))))))))))))))))))))))))))))))))))))))))))))))))))))))))))))))))))))
 ))
 (let (($x323 (exists ((p Int) (a Int) (q Int) (b Int) (r Int) (s Int) )(! (let ((?x51 (* b00 r00)))
 (let ((?x47 (* a00 s00)))
 (let ((?x1195 (* (- 1) ?x47)))
 (let ((?x1745 (+ (* (- 1) (* (+ b (* (- 1) a)) r)) ?x1195 (* (+ s (* (- 1) r)) a) ?x51)))
 (let ((?x838 (+ q (* (- 1) p))))
 (let ((?x363 (+ s (* (- 1) r))))
 (let ((?x849 (* (- 1) a)))
 (let ((?x841 (+ b ?x849)))
 (let ((?x2228 (* ?x363 ?x363 ?x841 ?x841 ?x841 r r a a a p p p)))
 (let ((?x1617 (+ ?x2228 (* (- 1) (* ?x841 r a p p p)) (* ?x363 ?x363 ?x838 ?x838))))
 (let ((?x1603 (+ (* ?x841 ?x841 ?x841 ?x838 ?x838 r r r a a p p) (* (- 1) (* ?x363 ?x363 ?x363 ?x841 ?x841 p p)) (* ?x363 ?x363 ?x363 ?x841 ?x841 r p p p))))
 (let ((?x1143 (+ (* (- 1) (* (+ r (* (- 1) s)) b)) ?x1195 (* (+ a (* (- 1) b)) s) ?x51)))
 (let ((?x348 (+ p (* (- 1) q))))
 (let ((?x311 (+ a (* (- 1) b))))
 (let ((?x272 (* (- 1) s)))
 (let ((?x274 (+ r ?x272)))
 (let ((?x908 (* ?x274 ?x274 ?x311 ?x311 ?x311 ?x348 ?x348 ?x348 s s b b b)))
 (let ((?x2335 (+ ?x908 (* (- 1) (* ?x274 ?x311 ?x348 ?x348 ?x348 b)) (* s s q q))))
 (let ((?x1144 (* ?x274 ?x274 ?x274 ?x311 ?x311 ?x348 ?x348 b b b q q)))
 (let ((?x374 (+ ?x1144 (* (- 1) (* ?x348 ?x348 s s s b b)) (* ?x274 ?x348 ?x348 ?x348 s s s b b))))
 (let (($x991 (or (not (= (* ?x374 ?x2335 ?x1143) 0)) (not (= (* ?x1603 ?x1617 ?x1745) 0)))))
 (let ((?x73 (* b00 p00 s)))
 (let ((?x906 (+ (* q00 r00 b) ?x73 (* (- 1) (* b00 r00 q)) (* (- 1) (* p00 s00 b)) (* a00 s00 q) (* (- 1) (* a00 q00 s)))))
 (let (($x902 (= ?x906 0)))
 (let ((?x1332 (* a00 s00 p)))
 (let ((?x1325 (* q00 r00 a)))
 (let ((?x65 (* b00 p00 r)))
 (let ((?x1172 (+ (* (- 1) (* b00 r00 p)) (* (- 1) (* p00 s00 a)) ?x65 ?x1325 ?x1332 (* (- 1) (* a00 q00 r)))))
 (let ((?x59 (* b p)))
 (let ((?x55 (* a00 q00)))
 (let (($x2390 (= (+ (* (- 1) (* q a)) ?x55 (* (- 1) (* b00 p00)) ?x59) 0)))
 (let ((?x41 (* q00 r00)))
 (let ((?x37 (* p00 s00)))
 (let ((?x151 (* (- 1) ?x37)))
 (let ((?x1962 (* s p)))
 (and (= (+ (* (- 1) (* r q)) ?x1962 ?x151 ?x41) 0) (= (+ (* (- 1) (* r b)) ?x1195 (* s a) ?x51) 0) $x2390 (= ?x1172 0) $x902 $x991)))))))))))))))))))))))))))))))))))) :qid k!39))
 ))
 (let ((?x1072 (lambda ((p Int) (a Int) (q Int) (b Int) (r Int) (s Int) )(let ((?x51 (* b00 r00)))
 (let ((?x47 (* a00 s00)))
 (let ((?x1195 (* (- 1) ?x47)))
 (let ((?x1745 (+ (* (- 1) (* (+ b (* (- 1) a)) r)) ?x1195 (* (+ s (* (- 1) r)) a) ?x51)))
 (let ((?x838 (+ q (* (- 1) p))))
 (let ((?x363 (+ s (* (- 1) r))))
 (let ((?x849 (* (- 1) a)))
 (let ((?x841 (+ b ?x849)))
 (let ((?x2228 (* ?x363 ?x363 ?x841 ?x841 ?x841 r r a a a p p p)))
 (let ((?x1617 (+ ?x2228 (* (- 1) (* ?x841 r a p p p)) (* ?x363 ?x363 ?x838 ?x838))))
 (let ((?x1603 (+ (* ?x841 ?x841 ?x841 ?x838 ?x838 r r r a a p p) (* (- 1) (* ?x363 ?x363 ?x363 ?x841 ?x841 p p)) (* ?x363 ?x363 ?x363 ?x841 ?x841 r p p p))))
 (let ((?x1143 (+ (* (- 1) (* (+ r (* (- 1) s)) b)) ?x1195 (* (+ a (* (- 1) b)) s) ?x51)))
 (let ((?x348 (+ p (* (- 1) q))))
 (let ((?x311 (+ a (* (- 1) b))))
 (let ((?x272 (* (- 1) s)))
 (let ((?x274 (+ r ?x272)))
 (let ((?x908 (* ?x274 ?x274 ?x311 ?x311 ?x311 ?x348 ?x348 ?x348 s s b b b)))
 (let ((?x2335 (+ ?x908 (* (- 1) (* ?x274 ?x311 ?x348 ?x348 ?x348 b)) (* s s q q))))
 (let ((?x1144 (* ?x274 ?x274 ?x274 ?x311 ?x311 ?x348 ?x348 b b b q q)))
 (let ((?x374 (+ ?x1144 (* (- 1) (* ?x348 ?x348 s s s b b)) (* ?x274 ?x348 ?x348 ?x348 s s s b b))))
 (let (($x991 (or (not (= (* ?x374 ?x2335 ?x1143) 0)) (not (= (* ?x1603 ?x1617 ?x1745) 0)))))
 (let ((?x73 (* b00 p00 s)))
 (let ((?x906 (+ (* q00 r00 b) ?x73 (* (- 1) (* b00 r00 q)) (* (- 1) (* p00 s00 b)) (* a00 s00 q) (* (- 1) (* a00 q00 s)))))
 (let (($x902 (= ?x906 0)))
 (let ((?x69 (* a00 q00 r)))
 (let ((?x2044 (* p00 s00 a)))
 (let ((?x495 (* b00 r00 p)))
 (let ((?x1199 (+ ?x495 ?x2044 (* (- 1) (* b00 p00 r)) (* (- 1) (* q00 r00 a)) (* (- 1) (* a00 s00 p)) ?x69)))
 (let ((?x57 (* b00 p00)))
 (let ((?x2003 (* q a)))
 (let (($x2001 (= (+ ?x2003 (* (- 1) (* a00 q00)) ?x57 (* (- 1) (* b p))) 0)))
 (let (($x1194 (= (+ (* r b) ?x47 (* (- 1) (* s a)) (* (- 1) ?x51)) 0)))
 (let ((?x41 (* q00 r00)))
 (let ((?x910 (* (- 1) ?x41)))
 (let ((?x37 (* p00 s00)))
 (let ((?x1996 (* r q)))
 (let (($x490 (and (= (+ ?x1996 (* (- 1) (* s p)) ?x37 ?x910) 0) $x1194 $x2001 (= ?x1199 0) $x902 $x991)))
 (let ((?x1332 (* a00 s00 p)))
 (let ((?x1325 (* q00 r00 a)))
 (let ((?x65 (* b00 p00 r)))
 (let (($x2277 (= (+ (* (- 1) ?x495) (* (- 1) ?x2044) ?x65 ?x1325 ?x1332 (* (- 1) ?x69)) 0)))
 (let (($x2390 (= (+ (* (- 1) ?x2003) (* a00 q00) (* (- 1) ?x57) (* b p)) 0)))
 (let (($x2395 (and (= (+ (* (- 1) ?x1996) (* s p) (* (- 1) ?x37) ?x41) 0) (= (+ (* (- 1) (* r b)) ?x1195 (* s a) ?x51) 0) $x2390 $x2277 $x902 $x991)))
 (rewrite (= $x2395 $x490))))))))))))))))))))))))))))))))))))))))))))))
 ))
 (let (($x126 (exists ((p Int) (a Int) (q Int) (b Int) (r Int) (s Int) )(! (let ((?x107 (- s r)))
 (let ((?x104 (- b a)))
 (let ((?x113 (- q p)))
 (let ((?x118 (- (* a a ?x104 ?x104 ?x104 p p ?x113 ?x113 r r r) (* ?x104 ?x104 p p ?x107 ?x107 ?x107))))
 (let ((?x110 (* a a a ?x104 ?x104 ?x104 p p p r r ?x107 ?x107)))
 (let ((?x115 (+ (- ?x110 (* a ?x104 p p p r)) (* ?x113 ?x113 ?x107 ?x107))))
 (let ((?x51 (* b00 r00)))
 (let ((?x121 (* (+ (- (* (- 1) ?x104 r) (* a00 s00)) (* a ?x107) ?x51) ?x115 (+ ?x118 (* ?x104 ?x104 p p p r ?x107 ?x107 ?x107)))))
 (let ((?x84 (- r s)))
 (let ((?x90 (- p q)))
 (let ((?x87 (- a b)))
 (let ((?x98 (- (* ?x87 ?x87 b b b ?x90 ?x90 q q ?x84 ?x84 ?x84) (* b b ?x90 ?x90 s s s))))
 (let ((?x94 (* q q s s)))
 (let ((?x91 (* ?x87 ?x87 ?x87 b b b ?x90 ?x90 ?x90 ?x84 ?x84 s s)))
 (let ((?x101 (* (+ (- (* (- 1) b ?x84) (* a00 s00)) (* ?x87 s) ?x51) (+ (- ?x91 (* ?x87 b ?x90 ?x90 ?x90 ?x84)) ?x94) (+ ?x98 (* b b ?x90 ?x90 ?x90 ?x84 s s s)))))
 (let ((?x81 (* a00 q00 s)))
 (let ((?x76 (* b p00 s00)))
 (let ((?x77 (- (+ (* b q00 r00) (* b00 p00 s)) (* b00 q r00))))
 (let ((?x69 (* a00 q00 r)))
 (let ((?x66 (* a q00 r00)))
 (let ((?x65 (* b00 p00 r)))
 (let ((?x68 (+ (- (* (- 1) b00 p r00) (* a p00 s00)) ?x65 ?x66 (* a00 p s00))))
 (let ((?x59 (* b p)))
 (let ((?x60 (+ (- (+ (* (- 1) a q) (* a00 q00)) (* b00 p00)) ?x59)))
 (let (($x53 (= (+ (- (* (- 1) b r) (* a00 s00)) (* a s) ?x51) 0)))
 (let ((?x41 (* q00 r00)))
 (let ((?x42 (+ (- (+ (* (- 1) q r) (* p s)) (* p00 s00)) ?x41)))
 (and (= ?x42 0) $x53 (= ?x60 0) (= (- ?x68 ?x69) 0) (= (- (+ (- ?x77 ?x76) (* a00 q s00)) ?x81) 0) (or (not (= ?x101 0)) (not (= ?x121 0))))))))))))))))))))))))))))))) :qid k!39))
 ))
 (let ((?x1256 (lambda ((p Int) (a Int) (q Int) (b Int) (r Int) (s Int) )(let ((?x51 (* b00 r00)))
 (let ((?x47 (* a00 s00)))
 (let ((?x1195 (* (- 1) ?x47)))
 (let ((?x1745 (+ (* (- 1) (* (+ b (* (- 1) a)) r)) ?x1195 (* (+ s (* (- 1) r)) a) ?x51)))
 (let ((?x838 (+ q (* (- 1) p))))
 (let ((?x363 (+ s (* (- 1) r))))
 (let ((?x849 (* (- 1) a)))
 (let ((?x841 (+ b ?x849)))
 (let ((?x2228 (* ?x363 ?x363 ?x841 ?x841 ?x841 r r a a a p p p)))
 (let ((?x1617 (+ ?x2228 (* (- 1) (* ?x841 r a p p p)) (* ?x363 ?x363 ?x838 ?x838))))
 (let ((?x1603 (+ (* ?x841 ?x841 ?x841 ?x838 ?x838 r r r a a p p) (* (- 1) (* ?x363 ?x363 ?x363 ?x841 ?x841 p p)) (* ?x363 ?x363 ?x363 ?x841 ?x841 r p p p))))
 (let ((?x1143 (+ (* (- 1) (* (+ r (* (- 1) s)) b)) ?x1195 (* (+ a (* (- 1) b)) s) ?x51)))
 (let ((?x348 (+ p (* (- 1) q))))
 (let ((?x311 (+ a (* (- 1) b))))
 (let ((?x272 (* (- 1) s)))
 (let ((?x274 (+ r ?x272)))
 (let ((?x908 (* ?x274 ?x274 ?x311 ?x311 ?x311 ?x348 ?x348 ?x348 s s b b b)))
 (let ((?x2335 (+ ?x908 (* (- 1) (* ?x274 ?x311 ?x348 ?x348 ?x348 b)) (* s s q q))))
 (let ((?x1144 (* ?x274 ?x274 ?x274 ?x311 ?x311 ?x348 ?x348 b b b q q)))
 (let ((?x374 (+ ?x1144 (* (- 1) (* ?x348 ?x348 s s s b b)) (* ?x274 ?x348 ?x348 ?x348 s s s b b))))
 (let (($x991 (or (not (= (* ?x374 ?x2335 ?x1143) 0)) (not (= (* ?x1603 ?x1617 ?x1745) 0)))))
 (let ((?x73 (* b00 p00 s)))
 (let ((?x906 (+ (* q00 r00 b) ?x73 (* (- 1) (* b00 r00 q)) (* (- 1) (* p00 s00 b)) (* a00 s00 q) (* (- 1) (* a00 q00 s)))))
 (let (($x902 (= ?x906 0)))
 (let ((?x1332 (* a00 s00 p)))
 (let ((?x1325 (* q00 r00 a)))
 (let ((?x65 (* b00 p00 r)))
 (let ((?x1172 (+ (* (- 1) (* b00 r00 p)) (* (- 1) (* p00 s00 a)) ?x65 ?x1325 ?x1332 (* (- 1) (* a00 q00 r)))))
 (let ((?x59 (* b p)))
 (let ((?x55 (* a00 q00)))
 (let (($x2390 (= (+ (* (- 1) (* q a)) ?x55 (* (- 1) (* b00 p00)) ?x59) 0)))
 (let ((?x41 (* q00 r00)))
 (let ((?x37 (* p00 s00)))
 (let ((?x151 (* (- 1) ?x37)))
 (let ((?x1962 (* s p)))
 (let (($x2395 (and (= (+ (* (- 1) (* r q)) ?x1962 ?x151 ?x41) 0) (= (+ (* (- 1) (* r b)) ?x1195 (* s a) ?x51) 0) $x2390 (= ?x1172 0) $x902 $x991)))
 (let ((?x107 (- s r)))
 (let ((?x104 (- b a)))
 (let ((?x113 (- q p)))
 (let ((?x118 (- (* a a ?x104 ?x104 ?x104 p p ?x113 ?x113 r r r) (* ?x104 ?x104 p p ?x107 ?x107 ?x107))))
 (let ((?x110 (* a a a ?x104 ?x104 ?x104 p p p r r ?x107 ?x107)))
 (let ((?x115 (+ (- ?x110 (* a ?x104 p p p r)) (* ?x113 ?x113 ?x107 ?x107))))
 (let ((?x121 (* (+ (- (* (- 1) ?x104 r) ?x47) (* a ?x107) ?x51) ?x115 (+ ?x118 (* ?x104 ?x104 p p p r ?x107 ?x107 ?x107)))))
 (let ((?x84 (- r s)))
 (let ((?x90 (- p q)))
 (let ((?x87 (- a b)))
 (let ((?x98 (- (* ?x87 ?x87 b b b ?x90 ?x90 q q ?x84 ?x84 ?x84) (* b b ?x90 ?x90 s s s))))
 (let ((?x94 (* q q s s)))
 (let ((?x91 (* ?x87 ?x87 ?x87 b b b ?x90 ?x90 ?x90 ?x84 ?x84 s s)))
 (let ((?x101 (* (+ (- (* (- 1) b ?x84) ?x47) (* ?x87 s) ?x51) (+ (- ?x91 (* ?x87 b ?x90 ?x90 ?x90 ?x84)) ?x94) (+ ?x98 (* b b ?x90 ?x90 ?x90 ?x84 s s s)))))
 (let ((?x81 (* a00 q00 s)))
 (let ((?x76 (* b p00 s00)))
 (let ((?x80 (+ (- (- (+ (* b q00 r00) ?x73) (* b00 q r00)) ?x76) (* a00 q s00))))
 (let ((?x69 (* a00 q00 r)))
 (let ((?x66 (* a q00 r00)))
 (let ((?x68 (+ (- (* (- 1) b00 p r00) (* a p00 s00)) ?x65 ?x66 (* a00 p s00))))
 (let (($x61 (= (+ (- (+ (* (- 1) a q) ?x55) (* b00 p00)) ?x59) 0)))
 (let (($x44 (= (+ (- (+ (* (- 1) q r) (* p s)) ?x37) ?x41) 0)))
 (let (($x125 (and $x44 (= (+ (- (* (- 1) b r) ?x47) (* a s) ?x51) 0) $x61 (= (- ?x68 ?x69) 0) (= (- ?x80 ?x81) 0) (or (not (= ?x101 0)) (not (= ?x121 0))))))
 (rewrite (= $x125 $x2395))))))))))))))))))))))))))))))))))))))))))))))))))))))))))))))
 ))
 (let ((@x127 (asserted $x126)))
 (let ((@x1071 (mp (mp @x127 (quant-intro (proof-bind ?x1256) (= $x126 $x323)) $x323) (rewrite (= $x323 $x323)) $x323)))
 (let ((@x619 (mp (mp @x1071 (quant-intro (proof-bind ?x1072) (= $x323 $x1727)) $x1727) (quant-intro (proof-bind ?x1408) (= $x1727 $x1728)) $x1728)))
 (let ((@x1652 (mp (mp~ @x619 (sk (~ $x1728 $x312)) $x312) (rewrite (= $x312 $x1253)) $x1253)))
 (let ((@x1548 (and-elim @x1652 $x2404)))
 (let ((@x463 (unit-resolution ((_ th-lemma arith triangle-eq) (or (not $x2404) $x524)) @x1548 $x524)))
 (let (($x531 (<= ?x2403 0)))
 (let ((@x740 (unit-resolution ((_ th-lemma arith triangle-eq) (or (not $x2404) $x531)) @x1548 $x531)))
 (let (($x2468 (not (<= ?x355 0))))
 (let (($x1012 (>= ?x534 0)))
 (let (($x1202 (<= ?x534 0)))
 (let ((@x611 (unit-resolution ((_ th-lemma arith triangle-eq) (or $x1001 (not $x1202) (not $x1012))) (lemma ((_ th-lemma arith farkas 1 1 1) (hypothesis (not $x1202)) @x740 @x463 false) $x1202) (lemma ((_ th-lemma arith farkas 1 1 1) (hypothesis (not $x1012)) @x740 @x463 false) $x1012) $x1001)))
 (let (($x1207 (>= ?x355 0)))
 (let ((@x2199 (unit-resolution ((_ th-lemma arith triangle-eq) (or $x427 $x2468 (not $x1207))) (lemma ((_ th-lemma arith farkas 1 1 1) (hypothesis (not $x1207)) @x740 @x463 false) $x1207) (unit-resolution (and-elim @x1652 $x1266) @x611 $x469) $x2468)))
 ((_ th-lemma arith farkas 1 1 1) @x2199 @x740 @x463 false))))))))))))))))))))))))))))))))))))))))))))))))))))))))))))))))))))))))))))))))))))))))))))))))))))))))))))))))))))))))))))))))))))))))))))))

(:added-eqs                 6
 :arith-assert-diseq        3
 :arith-assert-lower        35
 :arith-assert-upper        18
 :arith-conflicts           4
 :arith-eq-adapter          7
 :arith-fixed-eqs           6
 :arith-max-min             1040
 :arith-nonlinear-bounds    16
 :arith-num-rows            13
 :arith-pivots              5
 :arith-pseudo-nonlinear    8
 :arith-row-summations      1
 :arith-tableau-max-columns 144
 :arith-tableau-max-rows    13
 :conflicts                 4
 :decisions                 7
 :del-clause                15
 :final-checks              4
 :max-memory                3.95
 :memory                    3.35
 :mk-bool-var               27
 :mk-clause                 24
 :num-allocs                1295329
 :num-checks                1
 :propagations              19
 :rlimit-count              11511
 :time                      0.01
 :total-time                0.02)
